SAT
-93 22 -81 17 20 -74 -58 -80 72 99 15 -32 7 54 5 -64 51 -79 -68 -61 12 -30 41 40 29 85 26 -18 -19 -24 6 -57 71 -86 77 96 60 -16 59 -50 -70 -89 -52 -65 49 38 -9 82 62 -31 53 97 -13 27 -88 -11 -43 94 -87 -91 -45 36 44 69 -73 48 21 -3 -92 -37 1 -25 -67 34 39 75 -28 66 -55 56 8 63 -100 -35 -42 33 76 4 23 10 -95 84 -78 2 46 83 -90 -47 98 14 0
